c E(3,0) E(0,3) E(0,1) E(1,0) E(2,0) E(0,2) E(3,1) E(1,3) E(3,2) E(2,3) E(1,2) E(2,1)
c 1 2 3 4 5 6 7 8 9 10 11 12
p cnf 12 46
3 -3 0
6 -6 0
2 -2 0
4 -4 0
11 -11 0
8 -8 0
5 -5 0
12 -12 0
10 -10 0
1 -1 0
7 -7 0
9 -9 0
3 6 2 0
4 11 8 0
5 12 10 0
1 7 9 0
-3 -4 0
-6 -5 0
-2 -1 0
-11 -12 0
-8 -7 0
-10 -9 0
3 4 -3 0
3 4 -4 0
6 5 -6 0
6 5 -5 0
2 1 -2 0
2 1 -1 0
11 12 -11 0
11 12 -12 0
8 7 -8 0
8 7 -7 0
10 9 -10 0
10 9 -9 0
3 -3 -4 0
6 -6 -5 0
2 -2 -1 0
4 -3 -4 0
11 -11 -12 0
8 -8 -7 0
5 -6 -5 0
12 -11 -12 0
10 -10 -9 0
1 -2 -1 0
7 -8 -7 0
9 -10 -9 0
